* ENCODING=ISO-8859-1
NAME          CPLEX
ROWS
 N  obj1    
 G  c1      
 G  c2      
 G  c3      
 G  c4      
 G  c5      
 G  c6      
 G  c7      
 G  c8      
 G  c9      
 G  c10     
 G  c11     
 G  c12     
 G  c13     
 G  c14     
 G  c15     
 G  c16     
 G  c17     
 G  c18     
 G  c19     
 G  c20     
 G  c21     
 G  c22     
 G  c23     
 G  c24     
 G  c25     
 G  c26     
 G  c27     
 G  c28     
 G  c29     
 G  c30     
 G  c31     
 G  c32     
 G  c33     
 G  c34     
 G  c35     
 G  c36     
 G  c37     
 G  c38     
 G  c39     
 G  c40     
 G  c41     
 G  c42     
 G  c43     
 G  c44     
 G  c45     
 G  c46     
 G  c47     
 G  c48     
 G  c49     
 G  c50     
 G  c51     
 G  c52     
 G  c53     
 G  c54     
 G  c55     
 G  c56     
 G  c57     
 G  c58     
 G  c59     
 G  c60     
COLUMNS
    MARK0000  'MARKER'                 'INTORG'
    x1        obj1                            1
    x1        c3                            174
    x1        c12                           291
    x1        c13                           388
    x1        c30                           835
    x1        c38                           519
    x1        c51                           198
    x2        obj1                            1
    x2        c21                           973
    x2        c36                           525
    x2        c41                           485
    x2        c45                           475
    x2        c53                           160
    x3        obj1                            1
    x3        c1                            736
    x3        c8                            416
    x3        c11                           270
    x3        c45                           740
    x3        c48                           821
    x3        c52                           925
    x4        obj1                            1
    x4        c11                           493
    x4        c22                           668
    x4        c24                           543
    x4        c47                           660
    x5        obj1                            1
    x5        c7                            802
    x5        c11                           186
    x5        c13                           900
    x5        c43                           803
    x6        obj1                            1
    x6        c15                           256
    x6        c31                           598
    x6        c42                           662
    x7        obj1                            1
    x7        c15                           911
    x7        c35                           990
    x7        c47                           940
    x7        c56                           381
    x7        c58                           522
    x8        obj1                            1
    x8        c7                            456
    x8        c8                            382
    x8        c11                           922
    x8        c17                           621
    x8        c24                           367
    x8        c25                           399
    x8        c34                           654
    x8        c35                           734
    x9        obj1                            1
    x9        c8                            152
    x9        c9                            409
    x9        c16                           546
    x9        c38                           606
    x10       obj1                            1
    x10       c10                           960
    x10       c52                           259
    x11       obj1                            1
    x11       c4                            508
    x11       c5                            783
    x11       c7                            912
    x11       c12                           288
    x11       c18                           553
    x11       c21                           609
    x11       c25                           564
    x11       c26                           851
    x11       c27                           569
    x11       c35                           385
    x11       c40                           918
    x11       c57                           104
    x11       c59                           298
    x12       obj1                            1
    x12       c12                           692
    x12       c43                           512
    x13       obj1                            1
    x13       c3                            553
    x13       c18                           406
    x13       c23                           469
    x13       c36                           746
    x13       c52                           206
    x13       c60                           386
    x14       obj1                            1
    x14       c9                            812
    x14       c20                           244
    x14       c30                           171
    x14       c32                           508
    x14       c38                           199
    x14       c39                           758
    x14       c57                           766
    x15       obj1                            1
    x15       c18                           568
    x15       c28                           301
    x15       c38                           462
    x15       c47                           383
    x15       c51                           466
    x15       c56                           592
    x16       obj1                            1
    x16       c3                            844
    x16       c29                           755
    x16       c38                           357
    x16       c41                           447
    x16       c54                           165
    x17       obj1                            1
    x17       c6                            818
    x17       c34                           407
    x17       c59                           537
    x18       obj1                            1
    x18       c12                           331
    x18       c14                           435
    x18       c16                           373
    x18       c32                           814
    x18       c33                           551
    x18       c38                           960
    x18       c40                           870
    x19       obj1                            1
    x19       c12                           638
    x19       c26                           217
    x19       c28                           930
    x19       c44                           773
    x19       c45                           889
    x19       c46                           606
    x20       obj1                            1
    x20       c3                            938
    x20       c7                            556
    x20       c17                           114
    x20       c46                           593
    x21       obj1                            1
    x21       c8                            972
    x21       c9                            170
    x21       c12                           599
    x21       c16                           548
    x21       c38                           849
    x21       c47                           804
    x21       c48                           412
    x22       obj1                            1
    x22       c5                            319
    x22       c7                            536
    x22       c10                           871
    x22       c14                           973
    x22       c16                           105
    x22       c21                           236
    x22       c44                           382
    x23       obj1                            1
    x23       c6                            809
    x23       c12                           679
    x23       c15                           575
    x23       c20                           295
    x23       c21                           276
    x23       c25                           904
    x23       c27                           530
    x23       c29                           561
    x23       c32                           906
    x23       c39                           540
    x24       obj1                            1
    x24       c21                           845
    x24       c22                           365
    x24       c26                           344
    x24       c35                           419
    x24       c51                           724
    x25       obj1                            1
    x25       c17                           449
    x25       c23                           656
    x25       c28                           528
    x25       c30                           235
    x25       c42                           649
    x25       c43                           891
    x25       c44                           784
    x25       c49                           950
    x25       c51                           128
    x26       obj1                            1
    x26       c13                           172
    x26       c55                           309
    x26       c57                           757
    x27       obj1                            1
    x27       c17                           900
    x27       c21                           946
    x27       c22                           119
    x27       c24                           709
    x27       c26                           430
    x27       c32                           620
    x27       c35                           818
    x27       c37                           838
    x27       c43                           673
    x27       c54                           746
    x27       c58                           476
    x28       obj1                            1
    x28       c49                           408
    x28       c52                           370
    x29       obj1                            1
    x29       c3                            943
    x29       c7                            747
    x29       c9                            201
    x29       c19                           259
    x29       c20                           888
    x29       c26                           211
    x29       c27                           332
    x29       c28                           927
    x29       c38                           766
    x29       c47                           546
    x29       c58                           105
    x30       obj1                            1
    x30       c2                            874
    x30       c4                            676
    x30       c36                           431
    x31       obj1                            1
    x31       c19                           957
    x31       c33                           744
    x31       c36                           298
    x31       c39                           393
    x31       c51                           906
    x31       c55                           623
    x32       obj1                            1
    x32       c2                            703
    x32       c4                            745
    x32       c9                            374
    x32       c19                           126
    x32       c31                           644
    x32       c33                           840
    x32       c36                           979
    x32       c41                           334
    x32       c50                           531
    x32       c53                           879
    x33       obj1                            1
    x33       c8                            301
    x33       c9                            109
    x33       c16                           889
    x33       c20                           572
    x33       c43                           434
    x33       c45                           302
    x34       obj1                            1
    x34       c20                           600
    x34       c25                           767
    x34       c30                           675
    x35       obj1                            1
    x35       c1                            931
    x35       c8                            763
    x35       c15                           963
    x35       c25                           744
    x35       c29                           680
    x35       c30                           166
    x36       obj1                            1
    x36       c2                            777
    x36       c3                            423
    x36       c6                            748
    x36       c14                           216
    x36       c23                           284
    x36       c28                           656
    x36       c59                           797
    x37       obj1                            1
    x37       c22                           518
    x37       c24                           592
    x37       c35                           729
    x37       c39                           489
    x37       c45                           843
    x37       c53                           618
    x38       obj1                            1
    x38       c1                            485
    x38       c8                            187
    x38       c10                           219
    x38       c25                           809
    x38       c34                           730
    x38       c36                           147
    x38       c55                           588
    x39       obj1                            1
    x39       c6                            511
    x39       c9                            354
    x39       c23                           124
    x39       c27                           315
    x39       c36                           355
    x39       c45                           121
    x39       c52                           504
    x39       c59                           332
    x40       obj1                            1
    x40       c6                            707
    x40       c10                           928
    x40       c19                           243
    x40       c31                           909
    x40       c34                           669
    x40       c42                           904
    x40       c45                           832
    x40       c46                           679
    x40       c58                           256
    x41       obj1                            1
    x41       c11                           287
    x41       c14                           764
    x41       c16                           797
    x41       c27                           682
    x41       c30                           526
    x41       c54                           104
    x41       c60                           164
    x42       obj1                            1
    x42       c17                           556
    x42       c26                           592
    x42       c35                           834
    x42       c42                           327
    x42       c47                           671
    x42       c50                           859
    x43       obj1                            1
    x43       c1                            649
    x43       c5                            263
    x43       c9                            272
    x43       c58                           464
    x44       obj1                            1
    x44       c3                            297
    x44       c4                            642
    x44       c12                           667
    x44       c35                           588
    x44       c54                           139
    x45       obj1                            1
    x45       c5                            533
    x45       c6                            397
    x45       c10                           967
    x45       c11                           601
    x45       c15                           772
    x45       c33                           917
    x45       c45                           895
    x45       c48                           352
    x46       obj1                            1
    x46       c14                           678
    x46       c17                           138
    x46       c18                           462
    x46       c20                           720
    x46       c28                           558
    x46       c34                           643
    x46       c37                           443
    x46       c38                           812
    x46       c58                           413
    x47       obj1                            1
    x47       c10                           231
    x47       c36                           365
    x47       c51                           257
    x48       obj1                            1
    x48       c4                            849
    x48       c14                           869
    x48       c19                           552
    x48       c23                           712
    x48       c24                           924
    x48       c31                           148
    x48       c33                           645
    x48       c45                           738
    x49       obj1                            1
    x49       c13                           800
    x49       c15                           258
    x49       c27                           139
    x49       c37                           723
    x49       c40                           430
    x49       c42                           387
    x49       c47                           512
    x50       obj1                            1
    x50       c6                            824
    x50       c20                           844
    x50       c21                           282
    x50       c23                           821
    x50       c42                           618
    x51       obj1                            1
    x51       c12                           267
    x51       c24                           109
    x51       c40                           141
    x51       c57                           842
    x52       obj1                            1
    x52       c17                           567
    x52       c20                           782
    x52       c24                           888
    x52       c26                           845
    x52       c59                           322
    x53       obj1                            1
    x53       c8                            528
    x53       c10                           872
    x53       c11                           215
    x53       c15                           533
    x53       c23                           715
    x53       c26                           738
    x53       c31                           905
    x53       c37                           181
    x53       c51                           608
    x54       obj1                            1
    x54       c22                           291
    x54       c24                           679
    x54       c50                           634
    x54       c53                           369
    x55       obj1                            1
    x55       c1                            550
    x55       c17                           547
    x55       c52                           220
    x56       obj1                            1
    x56       c8                            390
    x56       c27                           862
    x56       c28                           603
    x56       c30                           992
    x56       c33                           232
    x56       c34                           221
    x56       c39                           591
    x56       c47                           536
    x56       c58                           728
    x57       obj1                            1
    x57       c10                           233
    x57       c18                           608
    x57       c21                          1000
    x57       c30                           552
    x57       c49                           187
    x57       c51                           205
    x57       c54                           307
    x57       c57                           528
    x57       c60                           303
    x58       obj1                            1
    x58       c2                            626
    x58       c9                            877
    x58       c15                           467
    x58       c27                           769
    x58       c31                           172
    x58       c42                           113
    x58       c50                           902
    x59       obj1                            1
    x59       c15                           753
    x59       c20                           972
    x59       c26                           510
    x59       c39                           421
    x59       c56                           566
    x59       c59                           412
    x60       obj1                            1
    x60       c5                            456
    x60       c23                           236
    x60       c25                           234
    x60       c27                           688
    x60       c48                           339
    x60       c53                           287
    x60       c54                           114
    x60       c59                           339
    MARK0001  'MARKER'                 'INTEND'
RHS
    rhs       c1                           1676
    rhs       c2                           1490
    rhs       c3                           2086
    rhs       c4                           1710
    rhs       c5                           1177
    rhs       c6                           2407
    rhs       c7                           2005
    rhs       c8                           2046
    rhs       c9                           1789
    rhs       c10                          2641
    rhs       c11                          1487
    rhs       c12                          2226
    rhs       c13                          1130
    rhs       c14                          1968
    rhs       c15                          2744
    rhs       c16                          1629
    rhs       c17                          1946
    rhs       c18                          1299
    rhs       c19                          1069
    rhs       c20                          2959
    rhs       c21                          2584
    rhs       c22                           981
    rhs       c23                          2009
    rhs       c24                          2406
    rhs       c25                          2211
    rhs       c26                          2369
    rhs       c27                          2443
    rhs       c28                          2252
    rhs       c29                           998
    rhs       c30                          2076
    rhs       c31                          1688
    rhs       c32                          1424
    rhs       c33                          1965
    rhs       c34                          1662
    rhs       c35                          2749
    rhs       c36                          1923
    rhs       c37                          1093
    rhs       c38                          2765
    rhs       c39                          1596
    rhs       c40                          1180
    rhs       c41                           633
    rhs       c42                          1830
    rhs       c43                          1657
    rhs       c44                           970
    rhs       c45                          2918
    rhs       c46                           939
    rhs       c47                          2526
    rhs       c48                           962
    rhs       c49                           773
    rhs       c50                          1463
    rhs       c51                          1746
    rhs       c52                          1242
    rhs       c53                          1157
    rhs       c54                           788
    rhs       c55                           760
    rhs       c56                           770
    rhs       c57                          1499
    rhs       c58                          1482
    rhs       c59                          1519
    rhs       c60                           427
BOUNDS
 LI bnd       x1        0
 LI bnd       x2        0
 LI bnd       x3        0
 LI bnd       x4        0
 LI bnd       x5        0
 LI bnd       x6        0
 LI bnd       x7        0
 LI bnd       x8        0
 LI bnd       x9        0
 LI bnd       x10       0
 LI bnd       x11       0
 LI bnd       x12       0
 LI bnd       x13       0
 LI bnd       x14       0
 LI bnd       x15       0
 LI bnd       x16       0
 LI bnd       x17       0
 LI bnd       x18       0
 LI bnd       x19       0
 LI bnd       x20       0
 LI bnd       x21       0
 LI bnd       x22       0
 LI bnd       x23       0
 LI bnd       x24       0
 LI bnd       x25       0
 LI bnd       x26       0
 LI bnd       x27       0
 LI bnd       x28       0
 LI bnd       x29       0
 LI bnd       x30       0
 LI bnd       x31       0
 LI bnd       x32       0
 LI bnd       x33       0
 LI bnd       x34       0
 LI bnd       x35       0
 LI bnd       x36       0
 LI bnd       x37       0
 LI bnd       x38       0
 LI bnd       x39       0
 LI bnd       x40       0
 LI bnd       x41       0
 LI bnd       x42       0
 LI bnd       x43       0
 LI bnd       x44       0
 LI bnd       x45       0
 LI bnd       x46       0
 LI bnd       x47       0
 LI bnd       x48       0
 LI bnd       x49       0
 LI bnd       x50       0
 LI bnd       x51       0
 LI bnd       x52       0
 LI bnd       x53       0
 LI bnd       x54       0
 LI bnd       x55       0
 LI bnd       x56       0
 LI bnd       x57       0
 LI bnd       x58       0
 LI bnd       x59       0
 LI bnd       x60       0
ENDATA
